NAME: L-Norleucine; LC-ESI-QTOF; MS2; CE
PRECURSORMZ: 132.101905
PRECURSORTYPE: [M+H]+
FORMULA: C6H13NO2
Ontology: L-alpha-amino acids
INCHIKEY: LRQKBLKVPFOOQJ-YFKPBYRVSA-N
SMILES: CCCC[C@H](N)C(O)=O
RETENTIONTIME:
CCS: 132.3689906
IONMODE: Positive
COLLISIONENERGY: 30
Comment: registered in MassBank
Num Peaks: 6
69.0716 339
86.0972 1000
97.9536 85
98.9638 288
115.9675        237
124.9671        169

NAME: L-Methionine; CE30; FFEARJCKVFRZRR-BYPYZUCNSA-N
PRECURSORMZ: 150.058334350586
PRECURSORTYPE: [M+H]+
FORMULA: C5H11NO2S
Ontology: Methionine and derivatives
INCHIKEY: FFEARJCKVFRZRR-BYPYZUCNSA-N
SMILES: CSCC[C@@H](C(=O)O)N
RETENTIONTIME: 6.986262
CCS: 133.6676945
IONMODE: Positive
COLLISIONENERGY: 30
Comment: MS2 deconvoluted using CorrDec from all ion fragmentation data, MetaboLights identifier MTBLS1040
Num Peaks: 13
44.97849        22
46.03789        3
50.98084        3
53.03802        32
56.04975        100
57.05619        8
58.99472        3
61.01004        61
71.99017        19
74.09657        22
102.0471        5
104.053 17
133.033 12

NAME: L-Phenylalanine; CE10; COLNVLDHVKWLRT-QMMMGPOBSA-N
PRECURSORMZ: 166.08625793457
PRECURSORTYPE: [M+H]+
FORMULA: C9H11NO2
Ontology: Phenylalanine and derivatives
INCHIKEY: COLNVLDHVKWLRT-QMMMGPOBSA-N
SMILES: c1ccc(cc1)C[C@@H](C(=O)O)N
RETENTIONTIME: 6.394248
CCS: 136.8196643
IONMODE: Positive
COLLISIONENERGY: 10
Comment: MS2 deconvoluted using CorrDec from all ion fragmentation data, MetaboLights identifier MTBLS1040
Num Peaks: 20
42.03292        10
65.03852        2
77.03852        6
79.05426        2
80.04958        2
82.0636 2
91.05434        3
93.07003        5
94.066  2
103.0545        21
104.0582        2
107.0496        1
110.0608        3
118.0654        1
120.0809        100
121.0842        9
122.0963        1
131.0499        3
166.0873        8
167.0887        1

NAME: Arginine
PRECURSORMZ: 175.11895215917
PRECURSORTYPE: [M+H]+
FORMULA: C6H14N4O2
Ontology: L-alpha-amino acids
INCHIKEY: ODKSFYDXXFIFQN-UHFFFAOYNA-N
SMILES: O=C(O)C(N)CCCNC(=N)N
RETENTIONTIME:
CCS: 138.7372508
IONMODE: Positive
COLLISIONENERGY: 35 eV
Comment: DB#=FiehnHILIC001771; origin=Fiehn_HILIC
Num Peaks: 13
55.02941        10
60.05618        410
70.06447        1000
72.07688        30
112.07647       10
112.0839        40
115.71584       20
116.07088       250
118.69366       10
130.09814       90
158.08858       50
174.58136       20
175.11394       50

NAME: Serotonin; LC-ESI-QTOF; MS2; CE
PRECURSORMZ: 177.102239
PRECURSORTYPE: [M+H]+
FORMULA: C10H12N2O
Ontology: Serotonins
INCHIKEY: QZAYGJVTTNCVMB-UHFFFAOYSA-N
SMILES: NCCC1=CNC2=C1C=C(O)C=C2
RETENTIONTIME:
CCS: 139.0902569
IONMODE: Positive
COLLISIONENERGY: 25
Comment: registered in MassBank
Num Peaks: 31
56.942  14
67.04   64
72.937  11
74.951  11
77.034  7
79.052  14
85.945  9
91.053  18
94.04   12
96.939  27
103.053 12
105.07  131
107.049 12
114.946 12
115.054 448
115.98  7
116.05  18
117.058 260
130.067 43
131.06599       79
131.97301       17
132.08299       449
133.065 167
140.05099       11
141.05701       10
142.065 184
143.07201       118
144.048 22
145.052 16
159.069 149
160.076 1000

NAME: 3-Indolepropionic acid
PRECURSORMZ: 190.08625505017
PRECURSORTYPE: [M+H]+
FORMULA: C11H11NO2
Ontology: Indolyl carboxylic acids and derivatives
INCHIKEY: GOLXRNDWAUTYKT-UHFFFAOYSA-N
SMILES: O=C(O)CCC1=CNC=2C=CC=CC21
RETENTIONTIME:
CCS: -1
IONMODE: Positive
COLLISIONENERGY: HCD (NCE 20-30-40%)
Comment: DB#=FiehnHILIC000082; origin=Fiehn_HILIC
Num Peaks: 7
55.01862        110
130.06514       1000
144.08083       10
158.06015       10
172.07555       220
190.07019       10
190.08612       180

NAME: Phenylacetylglycine
PRECURSORMZ: 194.08116967017
PRECURSORTYPE: [M+H]+
FORMULA: C10H11NO3
Ontology: N-acyl-alpha amino acids
INCHIKEY: UTYVDVLMYQPLQB-UHFFFAOYSA-N
SMILES: O=C(O)CN=C(O)CC=1C=CC=CC1
RETENTIONTIME:
CCS: 141.6313249
IONMODE: Positive
COLLISIONENERGY: HCD (NCE 20-30-40%)
Comment: DB#=FiehnHILIC000676; origin=Fiehn_HILIC
Num Peaks: 8
58.06598        10
76.03989        490
91.05469        660
98.06043        20
120.08057       10
135.04366       20
194.11787       40
194.15384       1000

NAME: L-Tryptophan; CE30; QIVBCDIJIAJPQS-VIFPVBQESA-N
PRECURSORMZ: 205.097152709961
PRECURSORTYPE: [M+H]+
FORMULA: C11H12N2O2
Ontology: Indolyl carboxylic acids and derivatives
INCHIKEY: QIVBCDIJIAJPQS-VIFPVBQESA-N
SMILES: c1ccc2c(c1)c(C[C@@H](C(=O)O)N)c[nH]2
RETENTIONTIME: 6.768569
CCS: 146.3716063
IONMODE: Positive
COLLISIONENERGY: 30
Comment: MS2 deconvoluted using CorrDec from all ion fragmentation data, MetaboLights identifier MTBLS1040
Num Peaks: 40
51.02207        6
65.03835        10
77.03864        17
78.03413        4
89.03828        4
90.04638        3
91.05389        53
92.05589        4
93.05673        8
94.06408        4
96.04481        2
102.0469        1
103.0544        5
105.0697        4
115.054 41
116.0598        7
117.0578        24
118.0653        100
119.0693        8
127.0542        5
128.0504        2
128.0609        3
129.0578        3
130.06531       26
131.0715        5
132.0809        11
140.0495        1
142.0657        12
143.073 35
144.0804        16
145.08791       4
146.0603        8
147.0654        1
156.08121       2
170.0607        3
188.071 13
189.0743        2
205.09731       8
227.08051       1
243.0535        1

NAME: N-Acetylphenylalanine
PRECURSORMZ: 208.09681973517
PRECURSORTYPE: [M+H]+
FORMULA: C11H13NO3
Ontology: Phenylalanine and derivatives
INCHIKEY: CBQJSKKFNMDLON-UHFFFAOYNA-N
SMILES: O=C(O)C(N=C(O)C)CC=1C=CC=CC1
RETENTIONTIME:
CCS: 146.5613277
IONMODE: Positive
COLLISIONENERGY: HCD (NCE 20-30-40%)
Comment: DB#=FiehnHILIC000561; origin=Fiehn_HILIC
Num Peaks: 5
120.08096       1000
131.04927       10
149.05977       20
162.09131       140
166.08615       320

NAME: Butyryl carnitine (isomer of 920); PlaSMA ID-919
PRECURSORMZ: 232.1553
PRECURSORTYPE: [M+H]+
FORMULA: C11H21NO4
Ontology: Acyl carnitines
INCHIKEY: LRCNOZRCYBNMEP-UHFFFAOYNA-N
SMILES: O=C([O-])CC(OC(=O)C(C)C)C[N+](C)(C)C
RETENTIONTIME: 2.48
CCS: 161.308512
IONMODE: Positive
COLLISIONENERGY:
Comment: Annotation level-2; PlaSMA ID-919; ID title-GG_Root_Pos-687; Max plant tissue-GG_Root_Pos
Num Peaks: 7
84.08272        43
85.02786        96
86.02864        18
100.0732        19
173.07298       18
232.14523       23
232.15442       27

NAME: Cytarabine
PRECURSORMZ: 244.09279698317
PRECURSORTYPE: [M+H]+
FORMULA: C9H13N3O5
Ontology: Pyrimidine nucleosides
INCHIKEY: UHDGCWIWMRVCDJ-UHFFFAOYNA-N
SMILES: N=C1N=C(O)N(C=C1)C2OC(CO)C(O)C2O
RETENTIONTIME:
CCS: 155.4811997
IONMODE: Positive
COLLISIONENERGY: HCD (NCE 20-30-40%)
Comment: DB#=FiehnHILIC000292; origin=Fiehn_HILIC
Num Peaks: 2
112.05075       1000
244.09293       10

NAME: Guanosine
PRECURSORMZ: 284.098945
PRECURSORTYPE: [M+H]+
FORMULA: C10H13N5O5
Ontology: Purine nucleosides
INCHIKEY: NYHBQMYGNKIUIF-UUOKFMHZSA-N
SMILES: OC[C@H]1O[C@H]([C@H](O)[C@@H]1O)N1C=NC2=C1NC(=N)N=C2O
RETENTIONTIME:
CCS: 163.4993976
IONMODE: Positive
COLLISIONENERGY:
Comment: registered in Respect
Num Peaks: 3
152.0585        647
283.9827        33
284.09949       1000

NAME: Tris(1-chloro-2-propyl)phosphate; LC-ESI-ITFT; MS2; CE
PRECURSORMZ: 327.008105
PRECURSORTYPE: [M+H]+
FORMULA: C9H18Cl3O4P
Ontology: Trialkyl phosphates
INCHIKEY: KVMPUXDNESXNOH-UHFFFAOYNA-N
SMILES: CC(CCl)OP(=O)(OC(C)CCl)OC(C)CCl
RETENTIONTIME:
CCS: 159.366544
IONMODE: Positive
COLLISIONENERGY: 55
Comment: registered in MassBank
Num Peaks: 2
98.9841 1000
198.0882        32

NAME: Taurocholate; LC-ESI-QTOF; MS2; CE
PRECURSORMZ: 516.29895
PRECURSORTYPE: [M+H]+
FORMULA: C26H45NO7S
Ontology: Trihydroxy bile acids, alcohols and derivatives
INCHIKEY: WBWWGRHZICKQGZ-XWWYUOLUSA-N
SMILES: CC(CCC(O)=NCCS(O)(=O)=O)C1CCC2C3[C@H](O)CC4C[C@H](O)CCC4(C)C3C[C@H](O)C12C
RETENTIONTIME:
CCS: 221.4070054
IONMODE: Positive
COLLISIONENERGY: 20
Comment: registered in MassBank
Num Peaks: 8
126.0223        20
208.0648        12
227.15269       16
319.2421        53
337.25281       247
462.2645        1000
480.27661       134
498.28799       22

NAME: Uracil; CE10; ISAKRJDGNUQOIC-UHFFFAOYSA-N
PRECURSORMZ: 113.034553527832
PRECURSORTYPE: [M+H]+
FORMULA: C4H4N2O2
Ontology: Pyrimidones
INCHIKEY: ISAKRJDGNUQOIC-UHFFFAOYSA-N
SMILES: c1cnc(nc1O)O
RETENTIONTIME: 2.651987
CCS: 123.3245334
IONMODE: Positive
COLLISIONENERGY: 10
Comment: MS2 deconvoluted using CorrDec from all ion fragmentation data, MetaboLights identifier MTBLS1040
Num Peaks: 3
70.02866        15
96.00802        10
113.0349        29

NAME: Betaine; CE30; CE30; KWIUHFFTVRNATP-UHFFFAOYSA-N
PRECURSORMZ: 118.08625793457
PRECURSORTYPE: [M+H]+
FORMULA: C5H11NO2
Ontology: Alpha amino acids
INCHIKEY: KWIUHFFTVRNATP-UHFFFAOYSA-N
SMILES: C[N+](C)(C)CC(=O)[O-]
RETENTIONTIME: 7.411124
CCS: 122.7832144
IONMODE: Positive
COLLISIONENERGY: 30
Comment: MS2 deconvoluted using CorrDec from all ion fragmentation data, MetaboLights identifier MTBLS1040
Num Peaks: 5
42.03303        19
43.04075        2
56.04974        5
58.06492        100
59.07219        12

NAME: Bilirubin
PRECURSORMZ: 585.270751953125
PRECURSORTYPE: [M+H]+
FORMULA: C33H36N4O6
Ontology: Bilirubins
INCHIKEY: BPYKTIZUTYGOLE-IFADSCNNSA-N
SMILES: O=C(O)CCC1=C(NC(C=C2N=C(O)C(=C2C=C)C)=C1C)CC=3NC(C=C4N=C(O)C(C=C)=C4C)=C(C3CCC(=O)O)C
RETENTIONTIME:
CCS: 241.9013656
IONMODE: Positive
COLLISIONENERGY: 45HCD
Comment: DB#=VF-NPL-QEHF026510; origin=Vaniya/Fiehn Natural Products Library
Num Peaks: 5
271.14404       200
284.11551       60
297.12344       70
299.13904       1000
300.14255       170

NAME: L-5-Oxoproline; LC-ESI-QTOF; MS2; CE
PRECURSORMZ: 130.04987
PRECURSORTYPE: [M+H]+
FORMULA: C5H7NO3
Ontology: Alpha amino acids and derivatives
INCHIKEY: ODHCTXKNWHHXJC-VKHMYHEASA-N
SMILES: OC(=O)[C@@H]1CCC(O)=N1
RETENTIONTIME:
CCS: 128.0546885
IONMODE: Positive
COLLISIONENERGY:
Comment: registered in MassBank
Num Peaks: 2
84.045  1000
130.0504        233


