NAME: Corosolic acid; PlaSMA ID-1295
PRECURSORMZ: 471.34798
PRECURSORTYPE: [M-H]-
FORMULA: C30H48O4
Ontology: Triterpenoids
INCHIKEY: HFGSQOYIOKBQOW-UHFFFAOYNA-N
SMILES: CC1CCC2(CCC3(C)C(=CCC4C5(C)CC(O)C(O)C(C)(C)C5CCC34C)C2C1C)C(O)=O
RETENTIONTIME: 9.88
CCS: 222.7776231
IONMODE: Negative
COLLISIONENERGY: 
Comment: Annotation level-1; PlaSMA ID-1295; ID title-Corosolic acid; Max plant tissue-Standard only
Num Peaks: 5
196.13573	18
407.32126	20
471.30518	21
471.34604	3406
471.40079	20

NAME: Ginsenoside F1; PlaSMA ID-1760
PRECURSORMZ: 637.43211
PRECURSORTYPE: [M-H]-
FORMULA: C36H62O9
Ontology: Triterpenoids
INCHIKEY: XNGXWSFSJIQMNC-UHFFFAOYNA-N
SMILES: CC(C)=CCCC(C)(OC1OC(CO)C(O)C(O)C1O)C1CCC2(C)C1C(O)CC1C3(C)CCC(O)C(C)(C)C3C(O)CC21C
RETENTIONTIME: 6.59
CCS: 228.6667294
IONMODE: Negative
COLLISIONENERGY: 
Comment: Annotation level-1; PlaSMA ID-1760; ID title-Ginsenoside F1; Max plant tissue-Standard only
Num Peaks: 7
85.02712	53
101.02153	18
113.02687	18
161.04581	41
476.37155	18
637.43042	39
637.44897	17

NAME: alpha-Hederin; PlaSMA ID-1980
PRECURSORMZ: 749.44815
PRECURSORTYPE: [M-H]-
FORMULA: C41H66O12
Ontology: Triterpenoids
INCHIKEY: KEOITPILCOILGM-UHFFFAOYNA-N
SMILES: CC1OC(OC2C(O)C(O)COC2OC2CCC3(C)C(CCC4(C)C3CC=C3C5CC(C)(C)CCC5(CCC43C)C(O)=O)C2(C)CO)C(O)C(O)C1O
RETENTIONTIME: 7.94
CCS: 229.6713966
IONMODE: Negative
COLLISIONENERGY: 
Comment: Annotation level-1; PlaSMA ID-1980; ID title-alpha-Hederin; Max plant tissue-Standard only
Num Peaks: 4
473.36465	21
603.38916	19
749.41992	19
749.45715	61

NAME: Ginsenoside Rc; PlaSMA ID-2302
PRECURSORMZ: 1123.59058
PRECURSORTYPE: [M+FA-H]-
FORMULA: C53H90O22
Ontology: Triterpenoids
INCHIKEY: JDCPEKQWFDWQLI-UHFFFAOYNA-N
SMILES: CC(C)=CCCC(C)(OC1OC(COC2OC(CO)C(O)C2O)C(O)C(O)C1O)C1CCC2(C)C1C(O)CC1C3(C)CCC(OC4OC(CO)C(O)C(O)C4OC4OC(CO)C(O)C(O)C4O)C(C)(C)C3CCC21C
RETENTIONTIME: 6.01
CCS: -1
IONMODE: Negative
COLLISIONENERGY: 
Comment: Annotation level-1; PlaSMA ID-2302; ID title-Ginsenoside Rc; Max plant tissue-Standard only
Num Peaks: 35
82.52505	22
119.03152	25
149.04384	99
149.05327	19
170.27263	23
191.05684	45
251.10031	20
293.08136	23
449.74976	25
511.09222	26
576.06671	18
584.47949	27
684.77222	18
729.48901	23
783.45807	18
915.53979	20
945.55743	24
946.52869	64
947.54901	19
1077.58435	3832
1078.06763	191
1078.58643	1941
1079.03967	20
1079.10327	23
1079.1311	23
1079.59351	613
1079.64429	40
1080.59009	157
1091.08643	20
1096.04236	20
1100.55347	22
1101.59924	23
1102.05566	18
1123.55444	85
1123.59741	181

NAME: Echinocystic acid-3-O-glucoside; 
PRECURSORMZ: 633.40081
PRECURSORTYPE: [M-H]-
FORMULA: C36H58O9
Ontology: Triterpene saponins
INCHIKEY: WYDPEADEZMZKNM-UHFFFAOYNA-N
SMILES: CC1(C)CCC2(C(O)CC3(C)C(=CCC4C5(C)CCC(OC6OC(CO)C(O)C(O)C6O)C(C)(C)C5CCC34C)C2C1)C(O)=O
RETENTIONTIME: 7.33
CCS: 259.9200539
IONMODE: Negative
COLLISIONENERGY: 
Comment: Annotation level-1; PlaSMA ID-1746; ID title-Echinocystic acid-3-O-glucoside; Max plant tissue-Standard only
Num Peaks: 29
71.0117	87
73.02777	39
83.00739	19
89.02091	20
101.02345	129
102.91294	20
111.1031	20
113.02521	57
129.01576	19
143.03441	22
159.02892	22
160.88585	23
161.04582	65
162.04405	18
292.63208	22
303.25595	21
331.56744	22
391.46863	18
426.79605	30
479.3519	18
493.30188	19
564.82782	22
571.40436	23
571.42389	19
572.38861	21
587.39423	75
590.41388	18
633.0672	20
633.40167	7890

NAME: Saikosaponin a; PlaSMA ID-2026
PRECURSORMZ: 779.45872
PRECURSORTYPE: [M-H]-
FORMULA: C42H68O13
Ontology: Triterpene saponins
INCHIKEY: KYWSCMDFVARMPN-UHFFFAOYNA-N
SMILES: CC1OC(OC2CCC3(C)C(CCC4(C)C3C=CC35OCC6(CCC(C)(C)CC36)C(O)CC45C)C2(C)CO)C(O)C(OC2OC(CO)C(O)C(O)C2O)C1O
RETENTIONTIME: 7.13
CCS: 234.1158053
IONMODE: Negative
COLLISIONENERGY: 
Comment: Annotation level-1; PlaSMA ID-2026; ID title-Saikosaponin a; Max plant tissue-Standard only
Num Peaks: 8
101.02531	40
127.03754	18
159.02754	18
161.04645	19
617.40735	62
618.39996	35
665.22308	19
779.4632	527

NAME: Licoricesaponin H2; PlaSMA ID-2072
PRECURSORMZ: 821.39651
PRECURSORTYPE: [M-H]-
FORMULA: C42H62O16
Ontology: Triterpene saponins
INCHIKEY: LPLVUJXQOOQHMX-UHFFFAOYNA-N
SMILES: CC1(C)C(CCC2(C)C1CCC1(C)C2C(=O)C=C2C3CC(C)(CCC3(C)CCC12C)C(O)=O)OC1OC(C(O)C(O)C1OC1OC(C(O)C(O)C1O)C(O)=O)C(O)=O
RETENTIONTIME: 7.04
CCS: 244.1261022
IONMODE: Negative
COLLISIONENERGY: 
Comment: Annotation level-1; PlaSMA ID-2072; ID title-Licoricesaponin H2; Max plant tissue-Standard only
Num Peaks: 138
66.15646	18
72.99091	26
75.00643	50
75.01157	27
83.6293	27
87.00688	30
89.01934	17
89.02431	29
95.01465	18
95.1748	20
101.02837	25
103.00188	68
103.00771	28
111.01102	18
113.02219	387
113.24353	27
117.01926	142
129.02025	26
130.9958	24
131.03477	121
133.01144	30
144.10968	27
147.06145	30
149.04797	33
157.00879	20
157.02283	20
163.02812	22
163.03456	20
169.4901	18
173.40128	19
175.02043	217
175.02995	88
176.03436	20
192.9639	21
193.0332	848
195.0218	25
195.0331	19
197.9897	25
220.30727	19
235.04648	85
236.05194	46
259.0466	26
261.06015	32
261.07178	56
263.01813	24
263.03711	21
275.0387	21
276.30295	21
276.63455	25
289.05859	321
290.09595	45
307.06421	68
319.68311	29
333.03461	21
333.05713	54
336.17905	28
337.42892	19
338.81812	23
346.26559	22
350.89688	18
351.01559	70
351.05637	3475
351.10904	20
352.0589	483
352.10141	20
353.04425	19
353.06088	86
378.47635	19
384.82733	33
386.55283	21
403.68509	20
419.01395	42
426.33417	19
435.51855	21
439.44717	20
467.0806	18
481.56805	18
484.73776	21
494.75824	18
495.30353	25
495.94934	22
499.65302	19
512.49719	35
515.30005	29
515.52863	20
521.01666	27
522.09711	21
524.09772	21
525.745	34
532.85675	39
536.47736	44
537.35168	18
537.90491	33
540.37244	23
541.63464	22
545.05377	47
550.2475	36
561.81757	45
565.33771	31
569.78577	21
573.35669	20
573.41473	39
576.4259	20
584.36389	24
623.0036	20
627.35388	70
627.37598	34
638.12665	27
644.25397	34
645.36469	98
645.39716	27
646.11633	28
646.35132	38
646.37299	50
655.06537	18
709.61676	24
710.46344	20
711.9411	20
715.41553	26
716.37982	20
718.55249	41
729.09076	18
752.9328	18
760.40033	24
760.42773	20
761.36401	48
762.3822	25
795.04254	18
803.37823	46
805.36835	27
816.5788	20
817.14825	31
820.87518	24
821.17114	20
821.34241	161
821.39557	33126
821.46533	167
821.58484	28

NAME: Asiaticoside; PlaSMA ID-2201
PRECURSORMZ: 957.50645
PRECURSORTYPE: [M-H]-
FORMULA: C48H78O19
Ontology: Triterpene saponins
INCHIKEY: WYQVAPGDARQUBT-UHFFFAOYNA-N
SMILES: CC1CCC2(CCC3(C)C(=CCC4C5(C)CC(O)C(O)C(C)(CO)C5CCC34C)C2C1C)C(=O)OC1OC(COC2OC(CO)C(OC3OC(C)C(O)C(O)C3O)C(O)C2O)C(O)C(O)C1O
RETENTIONTIME: 5.21
CCS: 270.070555
IONMODE: Negative
COLLISIONENERGY: 
Comment: Annotation level-1; PlaSMA ID-2201; ID title-Asiaticoside; Max plant tissue-Standard only
Num Peaks: 7
161.04065	20
205.07703	18
469.14893	37
469.16696	20
471.14618	20
488.33661	20
957.49469	114

NAME: Madecassoside; PlaSMA ID-2212
PRECURSORMZ: 973.50137
PRECURSORTYPE: [M-H]-
FORMULA: C48H78O20
Ontology: Triterpene saponins
INCHIKEY: BNMGUJRJUUDLHW-UHFFFAOYNA-N
SMILES: CC1CCC2(CCC3(C)C(=CCC4C5(C)CC(O)C(O)C(C)(CO)C5C(O)CC34C)C2C1C)C(=O)OC1OC(COC2OC(CO)C(OC3OC(C)C(O)C(O)C3O)C(O)C2O)C(O)C(O)C1O
RETENTIONTIME: 4.89
CCS: 358.5164663
IONMODE: Negative
COLLISIONENERGY: 
Comment: Annotation level-1; PlaSMA ID-2212; ID title-Madecassoside; Max plant tissue-Standard only
Num Peaks: 6
409.11505	18
469.15604	72
503.3306	20
504.38196	18
973.48236	36
973.51526	98


